nLocations = 14;
nCities = 23;
nTypes = 3;

p = [21 7 13 31 6 16 2 40 20 38 6 38 39 4 40 27 7 36 39 22 27 12 20];
posCities = [[11 7] [2 11] [2 2] [10 5] [10 15] [12 11] [17 18] [12 12] [13 14] [8 6] [18 12] [6 18] [1 9] [4 16] [15 4] [7 15] [18 1] [6 4] [18 7] [3 4] [5 13] [10 1] [11 4]];
posLocations = [[10 3] [2 2] [3 16] [8 14] [9 9] [13 10] [14 9] [6 7] [16 17] [17 13] [3 4] [5 5] [5 6] [10 14]];

d_city = [13 15 18];
cap = [26 47 66];
cost = [33 34 46];

d_center = 1.9;
